# 14976
param k := 6;
param n := 60;
param s := 1;
set E :=  (0,20) (0,35) (1,43) (1,50) (2,21) (2,27) (2,31) (3,19) (3,47) (4,5) (4,11) (5,10) (5,24) (6,31) (6,59) (7,53) (7,54) (8,13) (8,19) (8,49) (9,16) (9,31) (9,51) (9,52) (12,36) (12,45) (12,51) (14,35) (15,34) (15,43) (15,45) (15,54) (17,23) (18,40) (19,40) (19,47) (20,22) (20,47) (23,27) (24,37) (24,40) (24,50) (25,39) (25,46) (25,49) (26,52) (27,28) (29,59) (30,38) (30,55) (32,50) (33,41) (34,56) (35,41) (36,44) (38,49) (39,53) (39,55) (41,51) (42,57) (44,54) (46,58) (47,48) (50,57);